(declare-const |return@pos'| Int)
(declare-const |x'| Int)
(declare-const |c'| Int)
(declare-const |return@width'| Int)
(declare-const |return'| Int)
(assert (exists
         ((type_err?1 Int) (type_err?2 Int) (havoc?3 Int)
            (phi_return@width?4 Int) (type_err?5 Int) (phi_return@pos?6 Int)
            (type_err?7 Int) (phi_return?8 Int) (havoc?9 Int) (havoc?10 Int)
            (x?11 Int))
         (and (<= (+ (- x?11) 1) 0)
                (or (and (= havoc?10 0) (= (+ (- phi_return?8) havoc?9) 0)
                           (= (+ (- phi_return@pos?6) type_err?7) 0)
                           (= (+ (- phi_return@width?4) type_err?5) 0))
                      (and (or (<= (+ havoc?10 1) 0)
                                 (<= (+ (- havoc?10) 1) 0))
                             (= (+ havoc?3 (- phi_return?8)) 0)
                             (= (+ type_err?2 (- phi_return@pos?6)) 0)
                             (= (+ type_err?1 (- phi_return@width?4)) 0)))
                (= (+ |return@width'| (- phi_return@width?4)) 0)
                (= (+ |return@pos'| (- phi_return@pos?6)) 0)
                (= (+ |return'| (- phi_return?8)) 0)
                (= (+ |c'| (- havoc?10)) 0) (= (+ |x'| (- x?11) 1) 0))))
(check-sat)
